c Sudoku solution
p cnf 729 0
197 0
213 0
298 0
317 0
366 0
373 0
494 0
536 0
552 0
567 0
588 0
628 0
665 0
679 0
682 0
637 0
691 0
575 0
593 0
614 0
544 0
725 0
731 0
757 0
247 0
826 0
927 0
116 0
415 0
511 0
529 0
423 0
432 0
862 0
883 0
877 0
933 0
834 0
476 0
487 0
286 0
968 0
818 0
778 0
995 0
899 0
796 0
972 0
981 0
784 0
712 0
919 0
954 0
946 0
643 0
656 0
749 0
763 0
153 0
392 0
222 0
142 0
138 0
185 0
389 0
169 0
264 0
271 0
174 0
121 0
324 0
255 0
239 0
335 0
845 0
851 0
358 0
341 0
448 0
459 0
461 0
